
******************************************************************************
This program contains Ipopt, a library for large-scale nonlinear optimization.
 Ipopt is released as open source code under the Eclipse Public License (EPL).
         For more information visit http://projects.coin-or.org/Ipopt
******************************************************************************

This is Ipopt version 3.12.13, running with linear solver mumps.
NOTE: Other linear solvers might be more efficient (see Ipopt documentation).

Number of nonzeros in equality constraint Jacobian...:      367
Number of nonzeros in inequality constraint Jacobian.:      140
Number of nonzeros in Lagrangian Hessian.............:      145

Total number of variables............................:       90
                     variables with only lower bounds:       20
                variables with lower and upper bounds:       42
                     variables with only upper bounds:        0
Total number of equality constraints.................:       78
Total number of inequality constraints...............:       44
        inequality constraints with only lower bounds:       12
   inequality constraints with lower and upper bounds:        0
        inequality constraints with only upper bounds:       32

iter    objective    inf_pr   inf_du lg(mu)  ||d||  lg(rg) alpha_du alpha_pr  ls
   0  3.7024645e-06 2.74e+00 5.00e-01   0.0 0.00e+00    -  0.00e+00 0.00e+00   0
   1r 3.7024645e-06 2.74e+00 9.99e+02   0.1 0.00e+00    -  0.00e+00 1.65e-07R  2
   2r 3.7016597e-06 2.74e+00 9.99e+02  -4.9 3.00e-01    -  9.12e-02 1.01e-04f  1
   3r 3.2447315e-06 2.74e+00 8.01e+03  -1.0 9.45e+00    -  2.50e-02 1.05e-05f  1
   4r 2.3272966e-06 2.71e+00 8.54e+04  -1.0 2.74e-01    -  8.14e-01 1.08e-01f  1
   5r 7.6987266e-04 2.50e+00 1.07e+03  -0.8 6.23e-01    -  9.93e-01 1.00e+00f  1
   6r 2.5743348e-04 2.46e+00 3.34e+01  -1.2 2.23e-01    -  1.00e+00 1.00e+00f  1
   7r 2.9186474e-05 2.51e+00 5.90e+01  -2.2 1.41e-01    -  1.00e+00 9.21e-01f  1
   8r 7.9246482e-06 2.62e+00 3.69e+00  -2.4 1.14e-01    -  1.00e+00 1.00e+00f  1
   9r 1.0395714e-07 2.71e+00 3.91e+00  -3.2 8.96e-02    -  1.00e+00 1.00e+00f  1
iter    objective    inf_pr   inf_du lg(mu)  ||d||  lg(rg) alpha_du alpha_pr  ls
  10r-4.1018262e-07 2.73e+00 4.38e+03  -4.7 4.23e-02    -  1.00e+00 6.85e-01f  1
  11r-3.2857296e-07 2.74e+00 1.15e+01  -4.3 9.38e-03    -  1.00e+00 1.00e+00f  1
  12r-1.5900926e-07 2.74e+00 4.08e+00  -5.2 6.57e-02    -  1.00e+00 1.00e+00f  1
  13r-1.1432347e-07 2.74e+00 1.27e+02  -5.9 1.02e-02    -  1.00e+00 8.96e-01f  1
  14r-3.7576215e-08 2.74e+00 1.33e-02  -6.2 9.20e-03    -  1.00e+00 1.00e+00f  1
  15r-9.9430394e-09 2.74e+00 8.31e-03  -7.3 1.10e-02    -  1.00e+00 1.00e+00f  1
  16r-6.9606515e-09 2.74e+00 3.38e-04  -8.8 4.26e-03    -  1.00e+00 1.00e+00h  1
  17r-6.5207094e-09 2.74e+00 6.47e-03  -9.0 1.91e-03    -  1.00e+00 1.00e+00h  1
  18r-4.9574878e-09 2.74e+00 5.81e-03  -9.0 4.13e-03    -  1.00e+00 1.00e+00h  1
  19r-4.1816933e-09 2.74e+00 1.04e-04  -9.0 1.70e-03    -  1.00e+00 1.00e+00h  1
iter    objective    inf_pr   inf_du lg(mu)  ||d||  lg(rg) alpha_du alpha_pr  ls
  20r-4.0589344e-09 2.74e+00 1.10e-07  -9.0 2.63e-04    -  1.00e+00 1.00e+00h  1

Number of Iterations....: 20

                                   (scaled)                 (unscaled)
Objective...............:  -4.0558868684118133e-09   -4.0558868684118133e-09
Dual infeasibility......:   8.1136443798084745e-01    8.1136443798084745e-01
Constraint violation....:   1.1944316098833274e+00    2.7364293030494333e+00
Complementarity.........:   1.0001051597765313e-09    1.0001051597765313e-09
Overall NLP error.......:   1.1944316098833274e+00    2.7364293030494333e+00


Number of objective function evaluations             = 24
Number of objective gradient evaluations             = 3
Number of equality constraint evaluations            = 24
Number of inequality constraint evaluations          = 24
Number of equality constraint Jacobian evaluations   = 23
Number of inequality constraint Jacobian evaluations = 23
Number of Lagrangian Hessian evaluations             = 21
Total CPU secs in IPOPT (w/o function evaluations)   =      0.027
Total CPU secs in NLP function evaluations           =      0.000

EXIT: Converged to a point of local infeasibility. Problem may be infeasible.
